scheduleLength  = 7;
numberEmployees = 24;
numberShifts    = 3;
minDaysOff      = 2;
maxDaysOff      = 4;
minDaysWork     = 3;
maxDaysWork     = 7;
shiftNames      = ["D", "A", "N"];
minDaysShift    = [2, 2, 1];
maxDaysShift    = [6, 5, 4];

requirements = [| 10, 11, 9, 12, 10, 11, 6,
                | 6, 6, 7, 4, 6, 6, 7,
                | 0, 0, 0, 2, 0, 1, 0 |];

numberForbiddenShifts2 = 3;
forbiddenShifts2 = [| 3, 1,
                    | 3, 2,
                    | 2, 1 |];

numberForbiddenShifts3 = 0;
forbiddenShifts3 = array2d({},1..2,[]);

